************************************************************************
file with basedata            : n/a
initial value random generator: n/a
************************************************************************
projects                      :  1
jobs (incl. supersource/sink ):  32
horizon                       :  175
RESOURCES
  - renewable                 :  4   R
  - nonrenewable              :  0   N
  - doubly constrained        :  0   D
************************************************************************
PROJECT INFORMATION:
pronr.  #jobs rel.date duedate tardcost  MPM-Time
    1     30      0       72        5       72
************************************************************************
PRECEDENCE RELATIONS:
jobnr.    #modes  #successors   successors
   1        1          3           2   3   4
   2        1          3           5   7  10
   3        1          3           7  16  20
   4        1          3           9  10  11
   5        1          3           6  20  22
   6        1          3           9  11  15
   7        1          3           8   9  18
   8        1          3          14  22  27
   9        1          3          13  21  23
  10        1          3          21  23  28
  11        1          3          12  18  21
  12        1          3          13  16  23
  13        1          3          14  19  26
  14        1          1          17
  15        1          3          17  18  27
  16        1          3          17  19  24
  17        1          1          25
  18        1          2          30  31
  19        1          3          25  28  30
  20        1          1          24
  21        1          3          24  26  29
  22        1          1          28
  23        1          3          26  29  31
  24        1          1          25
  25        1          1          31
  26        1          1          27
  27        1          1          30
  28        1          1          29
  29        1          1          32
  30        1          1          32
  31        1          1          32
  32        1          0        
************************************************************************
REQUESTS/DURATIONS:
jobnr. mode duration  R 1  R 2  R 3  R 4
------------------------------------------------------------------------
  1      1     0    
  2      1    10       2   2   2   2   2   0   0   2   2   2
                       4   4   4   4   4   0   0   4   4   4
                       3   3   3   3   3   0   0   3   3   3
                       3   3   3   3   3   0   0   3   3   3
  3      1    10       0   6   6   6   0   6   6   6   0   0
                       0   8   8   8   0   8   8   8   0   0
                       0   3   3   3   0   3   3   3   0   0
                       0   1   1   1   0   1   1   1   0   0
  4      1     2       2   2
                      10  10
                       1   1
                       1   1
  5      1     8       6   6   6   6   6   6   6   6
                      10  10  10  10  10  10  10  10
                       4   4   4   4   4   4   4   4
                       3   3   3   3   3   3   3   3
  6      1    10       6   6   6   6   6   6   6   6   6   6
                       1   1   1   1   1   1   1   1   1   1
                       7   7   7   7   7   7   7   7   7   7
                       3   3   3   3   3   3   3   3   3   3
  7      1     1       1
                       6
                       9
                      10
  8      1     7       6   6   6   6   6   0   6
                       7   7   7   7   7   0   7
                      10  10  10  10  10   0  10
                       2   2   2   2   2   0   2
  9      1     8       0   2   2   2   2   2   2   2
                       0   1   1   1   1   1   1   1
                       0   3   3   3   3   3   3   3
                       0   6   6   6   6   6   6   6
 10      1     9       8   8   8   8   8   8   8   8   8
                       1   1   1   1   1   1   1   1   1
                       3   3   3   3   3   3   3   3   3
                       9   9   9   9   9   9   9   9   9
 11      1     8       8   8   8   0   8   0   8   8
                       1   1   1   0   1   0   1   1
                       8   8   8   0   8   0   8   8
                       9   9   9   0   9   0   9   9
 12      1     8       9   9   9   9   9   9   9   9
                       3   3   3   3   3   3   3   3
                       7   7   7   7   7   7   7   7
                       5   5   5   5   5   5   5   5
 13      1     2       8   0
                       8   0
                      10   0
                       1   0
 14      1     1       3
                       1
                       5
                       8
 15      1     4       9   9   9   9
                       8   8   8   8
                       4   4   4   4
                       4   4   4   4
 16      1     9       8   8   0   8   8   8   8   8   8
                       7   7   0   7   7   7   7   7   7
                       3   3   0   3   3   3   3   3   3
                       5   5   0   5   5   5   5   5   5
 17      1     5       2   2   2   2   2
                      10  10  10  10  10
                       1   1   1   1   1
                      10  10  10  10  10
 18      1     1       4
                       6
                       4
                       9
 19      1     5       2   2   2   2   2
                       4   4   4   4   4
                       6   6   6   6   6
                       8   8   8   8   8
 20      1     8       9   9   9   9   9   9   9   9
                       6   6   6   6   6   6   6   6
                       7   7   7   7   7   7   7   7
                       3   3   3   3   3   3   3   3
 21      1     9       3   3   3   3   3   3   0   3   3
                       5   5   5   5   5   5   0   5   5
                       8   8   8   8   8   8   0   8   8
                       3   3   3   3   3   3   0   3   3
 22      1     2       7   7
                       4   4
                       4   4
                       8   8
 23      1     8       4   4   4   4   4   4   4   4
                       6   6   6   6   6   6   6   6
                       6   6   6   6   6   6   6   6
                       4   4   4   4   4   4   4   4
 24      1     2      10   0
                       4   0
                       6   0
                       6   0
 25      1     4      10  10  10  10
                       9   9   9   9
                       2   2   2   2
                       8   8   8   8
 26      1     5       4   4   4   4   4
                      10  10  10  10  10
                       2   2   2   2   2
                      10  10  10  10  10
 27      1     6       1   1   1   1   1   1
                       8   8   8   8   8   8
                       3   3   3   3   3   3
                       2   2   2   2   2   2
 28      1     7       2   2   2   2   2   2   2
                      10  10  10  10  10  10  10
                       9   9   9   9   9   9   9
                       4   4   4   4   4   4   4
 29      1     7       2   2   0   2   2   2   2
                       3   3   0   3   3   3   3
                       7   7   0   7   7   7   7
                       4   4   0   4   4   4   4
 30      1     7       6   6   6   6   6   6   6
                       2   2   2   2   2   2   2
                       3   3   3   3   3   3   3
                      10  10  10  10  10  10  10
 31      1     2       2   2
                       2   2
                       4   4
                       4   4
 32      1     0    
************************************************************************
RESOURCEAVAILABILITIES:
  R 1  R 2  R 3  R 4

  14   0  14  14  14  14  14  14  14  14  14  14  14  14  14  14  14  14  14  14  14  14  14  14  14  14  14  14  14   0  14  14  14  14  14  14  14  14  14   0  14  14  14   0   0  14   0  14  14  14  14  14  14  14  14  14  14  14  14  14  14   0  14  14  14  14  14  14  14  14  14  14  14  14  14  14   0   0  14  14  14   0  14  14  14  14  14  14  14  14  14  14  14  14  14  14  14  14   0  14  14  14  14  14  14  14  14  14  14  14  14  14  14  14  14  14  14  14  14  14  14  14  14  14  14  14  14  14  14  14  14  14  14  14  14  14  14  14  14  14  14   0  14  14   0  14   0  14  14  14  14  14  14  14  14  14  14  14  14   0  14  14  14  14  14  14  14  14  14  14   0  14  14  14  14

  14   0  14  14  14  14  14  14  14  14  14  14  14  14  14  14  14  14  14  14  14  14  14  14  14  14  14  14  14   0  14  14  14  14  14  14  14  14  14   0  14  14  14   0   0  14   0  14  14  14  14  14  14  14  14  14  14  14  14  14  14   0  14  14  14  14  14  14  14  14  14  14  14  14  14  14   0   0  14  14  14   0  14  14  14  14  14  14  14  14  14  14  14  14  14  14  14  14   0  14  14  14  14  14  14  14  14  14  14  14  14  14  14  14  14  14  14  14  14  14  14  14  14  14  14  14  14  14  14  14  14  14  14  14  14  14  14  14  14  14  14   0  14  14   0  14   0  14  14  14  14  14  14  14  14  14  14  14  14   0  14  14  14  14  14  14  14  14  14  14   0  14  14  14  14

  13   0  13  13  13  13  13  13  13  13  13  13  13  13  13  13  13  13  13  13  13  13  13  13  13  13  13  13  13   0  13  13  13  13  13  13  13  13  13   0  13  13  13   0   0  13   0  13  13  13  13  13  13  13  13  13  13  13  13  13  13   0  13  13  13  13  13  13  13  13  13  13  13  13  13  13   0   0  13  13  13   0  13  13  13  13  13  13  13  13  13  13  13  13  13  13  13  13   0  13  13  13  13  13  13  13  13  13  13  13  13  13  13  13  13  13  13  13  13  13  13  13  13  13  13  13  13  13  13  13  13  13  13  13  13  13  13  13  13  13  13   0  13  13   0  13   0  13  13  13  13  13  13  13  13  13  13  13  13   0  13  13  13  13  13  13  13  13  13  13   0  13  13  13  13

  15   0  15  15  15  15  15  15  15  15  15  15  15  15  15  15  15  15  15  15  15  15  15  15  15  15  15  15  15   0  15  15  15  15  15  15  15  15  15   0  15  15  15   0   0  15   0  15  15  15  15  15  15  15  15  15  15  15  15  15  15   0  15  15  15  15  15  15  15  15  15  15  15  15  15  15   0   0  15  15  15   0  15  15  15  15  15  15  15  15  15  15  15  15  15  15  15  15   0  15  15  15  15  15  15  15  15  15  15  15  15  15  15  15  15  15  15  15  15  15  15  15  15  15  15  15  15  15  15  15  15  15  15  15  15  15  15  15  15  15  15   0  15  15   0  15   0  15  15  15  15  15  15  15  15  15  15  15  15   0  15  15  15  15  15  15  15  15  15  15   0  15  15  15  15

************************************************************************
